DIMACS_lns/graph-1000-292.col
p edge 1000 1819
e 2 827
e 2 771
e 2 355
e 2 848
e 2 431
e 3 630
e 3 613
e 3 468
e 3 259
e 5 798
e 5 171
e 5 313
e 5 144
e 5 682
e 5 39
e 6 379
e 6 367
e 6 758
e 6 92
e 6 555
e 6 256
e 11 899
e 11 507
e 11 808
e 11 68
e 11 406
e 11 881
e 12 883
e 12 73
e 12 435
e 12 813
e 12 193
e 13 799
e 13 748
e 13 545
e 13 918
e 13 938
e 14 615
e 14 690
e 14 113
e 15 839
e 15 828
e 15 400
e 15 738
e 15 157
e 15 271
e 16 256
e 16 784
e 16 844
e 18 905
e 18 114
e 18 270
e 19 89
e 19 677
e 19 209
e 19 160
e 21 440
e 21 708
e 21 98
e 22 460
e 22 653
e 22 286
e 22 440
e 23 891
e 23 873
e 23 569
e 23 968
e 23 123
e 23 823
e 24 891
e 24 824
e 24 950
e 27 740
e 27 336
e 27 786
e 27 523
e 27 317
e 27 612
e 28 757
e 28 339
e 28 505
e 28 938
e 28 127
e 28 904
e 30 553
e 30 565
e 30 525
e 30 829
e 31 456
e 31 260
e 31 521
e 32 286
e 32 816
e 32 347
e 32 616
e 33 575
e 33 461
e 33 958
e 33 895
e 34 938
e 34 704
e 34 74
e 34 143
e 37 38
e 37 852
e 37 504
e 38 650
e 38 423
e 38 418
e 38 301
e 39 352
e 39 229
e 39 267
e 39 256
e 39 790
e 40 402
e 40 987
e 40 306
e 40 499
e 41 466
e 41 385
e 41 500
e 41 849
e 41 433
e 41 229
e 42 112
e 42 385
e 42 76
e 43 831
e 43 638
e 43 117
e 43 310
e 44 109
e 44 725
e 44 456
e 44 232
e 44 489
e 44 84
e 44 528
e 46 339
e 46 428
e 46 583
e 46 265
e 46 333
e 47 843
e 47 962
e 47 858
e 48 722
e 48 549
e 48 773
e 48 245
e 48 430
e 48 686
e 48 680
e 49 723
e 49 394
e 49 471
e 49 203
e 50 928
e 50 456
e 50 578
e 50 653
e 51 433
e 51 386
e 51 694
e 51 78
e 52 881
e 52 503
e 52 485
e 53 92
e 53 579
e 53 818
e 54 285
e 54 887
e 54 552
e 54 576
e 54 523
e 54 468
e 55 710
e 55 980
e 55 255
e 55 237
e 56 609
e 56 939
e 56 727
e 57 865
e 57 372
e 57 578
e 57 467
e 57 128
e 57 476
e 58 663
e 58 623
e 58 914
e 58 929
e 58 221
e 59 256
e 59 443
e 59 855
e 59 141
e 59 665
e 60 963
e 60 747
e 60 428
e 60 768
e 60 71
e 60 70
e 60 722
e 61 498
e 61 774
e 61 121
e 61 866
e 63 803
e 63 771
e 63 891
e 63 612
e 63 202
e 63 334
e 63 918
e 63 622
e 63 564
e 63 249
e 64 833
e 64 431
e 64 660
e 65 965
e 65 248
e 65 290
e 66 464
e 66 598
e 66 880
e 66 617
e 66 961
e 66 646
e 66 489
e 66 730
e 67 314
e 67 175
e 67 318
e 67 936
e 68 982
e 68 259
e 68 505
e 68 170
e 68 855
e 70 112
e 70 451
e 70 540
e 70 918
e 71 131
e 71 385
e 71 694
e 71 194
e 71 583
e 71 231
e 71 789
e 72 575
e 72 850
e 72 962
e 72 112
e 73 440
e 73 355
e 73 169
e 73 490
e 73 797
e 73 694
e 73 481
e 73 563
e 74 869
e 74 862
e 74 753
e 75 331
e 75 219
e 75 376
e 75 660
e 75 738
e 76 711
e 76 325
e 76 266
e 77 411
e 77 596
e 77 448
e 77 430
e 77 890
e 77 511
e 77 764
e 78 655
e 78 686
e 78 925
e 78 600
e 78 897
e 78 98
e 81 318
e 81 156
e 81 186
e 81 351
e 81 710
e 81 955
e 81 748
e 82 844
e 82 740
e 82 768
e 83 495
e 83 508
e 83 362
e 84 379
e 84 411
e 84 667
e 84 955
e 85 300
e 85 128
e 85 277
e 85 813
e 85 141
e 85 520
e 85 651
e 87 138
e 87 323
e 87 945
e 87 149
e 87 974
e 87 439
e 88 926
e 88 447
e 88 139
e 88 167
e 88 459
e 89 495
e 89 616
e 92 144
e 92 882
e 92 981
e 92 350
e 92 311
e 93 862
e 93 838
e 93 654
e 93 370
e 93 770
e 93 895
e 94 148
e 94 391
e 94 999
e 94 114
e 95 163
e 95 203
e 95 606
e 95 408
e 95 576
e 95 441
e 95 362
e 96 619
e 96 107
e 96 442
e 96 213
e 98 634
e 98 167
e 98 169
e 99 802
e 99 374
e 99 223
e 100 476
e 100 534
e 100 915
e 100 865
e 101 835
e 101 896
e 101 552
e 101 679
e 102 495
e 102 644
e 102 204
e 102 167
e 103 609
e 103 140
e 103 730
e 106 712
e 106 136
e 106 826
e 107 817
e 107 327
e 107 534
e 107 218
e 108 598
e 108 874
e 108 131
e 109 517
e 109 402
e 110 619
e 110 216
e 110 836
e 110 894
e 110 336
e 111 459
e 111 420
e 111 860
e 111 757
e 112 871
e 112 431
e 112 967
e 112 189
e 112 971
e 112 822
e 112 302
e 112 547
e 113 643
e 113 882
e 113 512
e 113 520
e 113 236
e 113 606
e 113 168
e 113 763
e 114 167
e 114 476
e 114 766
e 114 584
e 115 600
e 115 657
e 115 531
e 117 996
e 117 498
e 118 932
e 118 851
e 118 638
e 119 992
e 119 173
e 119 826
e 119 693
e 119 355
e 120 951
e 120 365
e 120 343
e 121 1000
e 121 652
e 121 258
e 121 438
e 122 884
e 122 128
e 122 944
e 123 891
e 123 935
e 125 152
e 125 908
e 125 318
e 125 705
e 127 903
e 127 151
e 128 633
e 128 598
e 129 643
e 129 874
e 129 374
e 129 512
e 129 189
e 130 654
e 130 844
e 130 767
e 130 944
e 130 490
e 130 366
e 131 1000
e 131 198
e 131 772
e 131 679
e 131 157
e 132 826
e 132 346
e 132 553
e 132 421
e 133 548
e 133 370
e 133 538
e 133 663
e 133 584
e 133 652
e 135 315
e 135 817
e 135 814
e 135 224
e 136 528
e 136 761
e 136 284
e 137 310
e 137 452
e 137 990
e 137 860
e 138 658
e 138 306
e 138 323
e 138 692
e 138 883
e 138 383
e 138 764
e 139 202
e 139 826
e 139 921
e 140 556
e 140 896
e 141 753
e 141 534
e 141 460
e 143 894
e 143 456
e 143 433
e 144 538
e 144 366
e 144 154
e 148 359
e 148 802
e 148 549
e 148 797
e 148 632
e 148 738
e 148 247
e 149 460
e 149 847
e 149 989
e 150 981
e 150 792
e 150 664
e 151 205
e 151 153
e 151 314
e 151 939
e 151 698
e 151 774
e 151 185
e 152 894
e 152 456
e 152 716
e 153 328
e 153 194
e 154 750
e 154 171
e 155 349
e 155 316
e 155 695
e 155 763
e 155 232
e 155 882
e 156 931
e 156 801
e 157 951
e 157 584
e 157 398
e 157 797
e 158 173
e 158 174
e 158 242
e 158 354
e 158 263
e 160 376
e 160 336
e 160 549
e 160 261
e 160 363
e 161 931
e 161 882
e 161 906
e 161 569
e 162 521
e 162 976
e 162 195
e 163 623
e 163 981
e 163 616
e 163 359
e 163 764
e 163 508
e 165 658
e 165 167
e 165 722
e 165 468
e 165 698
e 165 901
e 165 628
e 165 974
e 165 934
e 166 409
e 166 188
e 166 510
e 167 814
e 167 606
e 167 444
e 168 195
e 168 677
e 168 850
e 168 956
e 168 792
e 168 478
e 169 449
e 170 261
e 170 498
e 170 576
e 170 884
e 171 735
e 171 449
e 171 420
e 172 972
e 172 199
e 172 658
e 172 456
e 172 324
e 173 598
e 173 295
e 173 341
e 173 267
e 173 855
e 173 513
e 174 520
e 174 758
e 175 241
e 175 982
e 175 583
e 175 183
e 175 265
e 175 873
e 176 989
e 176 436
e 176 310
e 177 887
e 177 198
e 177 598
e 177 718
e 178 777
e 178 315
e 178 325
e 178 936
e 179 999
e 179 772
e 179 638
e 180 367
e 180 264
e 180 415
e 180 653
e 180 206
e 183 854
e 183 689
e 183 623
e 185 978
e 185 791
e 185 663
e 186 863
e 186 611
e 186 876
e 186 334
e 188 854
e 188 534
e 188 232
e 189 651
e 189 724
e 189 801
e 190 362
e 190 937
e 190 836
e 190 761
e 192 662
e 192 876
e 192 238
e 192 643
e 193 737
e 193 241
e 193 481
e 193 609
e 194 735
e 195 768
e 195 336
e 195 304
e 198 890
e 198 748
e 198 459
e 198 738
e 199 456
e 199 734
e 199 938
e 200 695
e 200 876
e 200 525
e 200 333
e 200 277
e 200 823
e 200 736
e 201 858
e 201 351
e 201 641
e 201 716
e 201 526
e 202 374
e 202 263
e 202 522
e 202 497
e 203 553
e 203 582
e 203 271
e 203 488
e 203 668
e 204 491
e 204 648
e 204 461
e 205 694
e 205 778
e 205 598
e 205 339
e 206 924
e 206 247
e 206 379
e 206 845
e 206 989
e 206 598
e 209 803
e 209 808
e 209 668
e 212 974
e 212 304
e 212 317
e 213 784
e 213 720
e 214 691
e 214 956
e 214 498
e 214 823
e 214 853
e 215 875
e 215 876
e 215 789
e 215 806
e 215 929
e 216 864
e 216 223
e 216 711
e 216 945
e 216 323
e 216 612
e 216 396
e 218 799
e 218 261
e 218 717
e 218 853
e 219 436
e 219 248
e 221 227
e 221 777
e 221 500
e 221 365
e 221 228
e 223 995
e 223 972
e 224 771
e 224 428
e 224 602
e 225 270
e 225 681
e 225 792
e 227 442
e 227 705
e 228 746
e 228 813
e 228 637
e 229 715
e 229 654
e 231 458
e 231 725
e 231 403
e 231 423
e 232 495
e 232 378
e 233 981
e 233 871
e 233 869
e 234 313
e 234 380
e 234 538
e 235 390
e 235 982
e 235 799
e 235 768
e 236 863
e 236 905
e 236 325
e 236 510
e 237 400
e 237 367
e 238 305
e 238 476
e 238 344
e 238 866
e 238 913
e 238 905
e 238 264
e 239 628
e 239 337
e 239 927
e 241 949
e 241 736
e 241 367
e 241 611
e 242 314
e 242 442
e 242 874
e 242 679
e 243 552
e 243 451
e 243 642
e 244 434
e 244 767
e 244 965
e 245 531
e 245 302
e 245 563
e 245 690
e 245 537
e 245 913
e 247 782
e 248 380
e 248 418
e 249 991
e 249 786
e 251 473
e 251 839
e 251 707
e 252 386
e 252 967
e 252 904
e 254 832
e 254 609
e 254 410
e 254 269
e 255 964
e 255 974
e 255 380
e 255 586
e 255 788
e 255 932
e 256 312
e 256 781
e 256 833
e 258 485
e 258 270
e 258 314
e 258 609
e 259 884
e 259 304
e 259 366
e 259 868
e 259 385
e 259 485
e 260 877
e 260 967
e 260 875
e 260 433
e 261 264
e 262 914
e 262 607
e 262 723
e 263 684
e 263 266
e 263 428
e 263 504
e 264 549
e 265 277
e 265 837
e 265 606
e 265 634
e 266 948
e 267 333
e 267 808
e 267 883
e 269 344
e 269 464
e 271 578
e 271 276
e 273 477
e 273 391
e 273 534
e 274 891
e 274 335
e 274 475
e 274 890
e 276 690
e 276 419
e 277 710
e 277 664
e 278 638
e 278 347
e 278 493
e 278 964
e 280 457
e 280 337
e 280 408
e 281 866
e 281 488
e 281 821
e 284 306
e 284 372
e 284 701
e 285 564
e 285 948
e 286 650
e 286 828
e 287 802
e 287 402
e 287 366
e 287 716
e 290 396
e 290 904
e 291 555
e 291 300
e 291 505
e 292 771
e 292 537
e 292 837
e 295 469
e 295 565
e 295 631
e 296 367
e 296 739
e 296 680
e 297 936
e 297 350
e 297 458
e 298 494
e 298 327
e 298 763
e 298 391
e 300 523
e 300 507
e 300 911
e 300 746
e 300 938
e 301 412
e 301 596
e 301 576
e 301 470
e 301 827
e 302 419
e 302 601
e 303 657
e 303 955
e 303 430
e 303 977
e 303 781
e 303 390
e 304 999
e 304 639
e 304 667
e 305 525
e 305 849
e 306 682
e 306 409
e 306 935
e 309 600
e 309 563
e 309 345
e 309 823
e 309 817
e 310 366
e 310 786
e 311 585
e 311 535
e 311 890
e 311 351
e 311 691
e 312 978
e 312 413
e 312 970
e 313 724
e 314 498
e 314 862
e 314 838
e 315 416
e 315 634
e 315 608
e 316 924
e 316 773
e 316 934
e 316 595
e 316 913
e 317 491
e 317 383
e 317 699
e 318 887
e 318 340
e 320 472
e 320 911
e 320 820
e 320 328
e 320 799
e 322 555
e 322 853
e 322 585
e 322 596
e 323 962
e 324 419
e 324 495
e 324 631
e 324 540
e 324 851
e 325 349
e 325 448
e 325 995
e 325 600
e 327 472
e 327 641
e 327 638
e 328 938
e 328 872
e 329 840
e 329 788
e 329 918
e 331 341
e 331 906
e 331 566
e 333 577
e 334 851
e 334 821
e 334 350
e 334 760
e 335 444
e 335 704
e 336 674
e 337 748
e 337 994
e 339 346
e 339 791
e 339 633
e 340 885
e 340 816
e 340 787
e 340 928
e 341 671
e 341 409
e 341 918
e 341 739
e 341 578
e 343 474
e 343 438
e 344 738
e 344 915
e 344 972
e 344 926
e 345 749
e 345 422
e 345 911
e 345 855
e 346 398
e 346 416
e 346 870
e 347 541
e 347 457
e 347 609
e 347 458
e 349 666
e 349 741
e 349 642
e 349 860
e 349 728
e 349 495
e 349 689
e 350 782
e 350 714
e 350 845
e 351 936
e 351 835
e 351 577
e 352 654
e 352 731
e 354 601
e 354 931
e 355 978
e 355 949
e 356 632
e 356 938
e 356 695
e 356 500
e 356 739
e 359 363
e 361 725
e 361 587
e 361 731
e 362 876
e 362 724
e 362 518
e 363 824
e 363 936
e 363 429
e 363 668
e 365 669
e 365 481
e 365 840
e 365 588
e 366 544
e 367 582
e 367 660
e 370 469
e 372 780
e 372 496
e 372 978
e 372 735
e 372 590
e 373 448
e 373 743
e 373 413
e 373 379
e 373 587
e 374 473
e 376 677
e 376 704
e 376 657
e 378 832
e 378 666
e 378 490
e 378 731
e 378 487
e 379 790
e 379 456
e 380 537
e 380 754
e 383 652
e 383 567
e 383 884
e 383 681
e 383 420
e 383 757
e 386 665
e 386 684
e 386 959
e 388 731
e 388 854
e 388 883
e 389 958
e 389 798
e 389 597
e 390 728
e 391 556
e 391 754
e 391 469
e 391 689
e 391 595
e 391 876
e 391 965
e 392 503
e 392 705
e 392 430
e 392 759
e 393 782
e 393 647
e 393 420
e 394 860
e 394 784
e 396 447
e 396 987
e 396 749
e 398 886
e 398 470
e 398 485
e 398 819
e 399 733
e 399 596
e 399 693
e 399 877
e 399 900
e 399 564
e 399 507
e 400 477
e 400 985
e 401 475
e 401 934
e 401 884
e 401 611
e 401 609
e 402 818
e 402 469
e 402 937
e 402 735
e 402 799
e 403 717
e 403 990
e 404 843
e 404 576
e 404 723
e 406 539
e 406 619
e 406 421
e 408 673
e 408 487
e 409 499
e 409 608
e 409 682
e 410 947
e 410 870
e 411 500
e 411 567
e 412 541
e 412 508
e 413 897
e 413 784
e 413 579
e 415 991
e 415 773
e 415 617
e 416 432
e 416 433
e 416 583
e 416 848
e 416 615
e 418 926
e 418 924
e 418 470
e 418 746
e 419 708
e 420 860
e 420 655
e 421 743
e 421 729
e 421 428
e 421 727
e 421 629
e 421 981
e 422 637
e 422 999
e 422 838
e 423 820
e 423 631
e 423 961
e 425 727
e 425 429
e 425 792
e 429 950
e 430 770
e 430 847
e 431 766
e 431 921
e 432 642
e 432 903
e 433 768
e 433 511
e 433 489
e 433 623
e 434 611
e 434 690
e 435 884
e 435 872
e 436 860
e 436 494
e 438 582
e 438 776
e 439 968
e 439 722
e 440 695
e 441 773
e 441 566
e 441 763
e 443 459
e 443 638
e 443 740
e 444 947
e 444 900
e 447 544
e 447 664
e 447 709
e 448 875
e 448 916
e 448 865
e 448 596
e 449 848
e 449 760
e 449 513
e 449 608
e 449 864
e 451 709
e 451 652
e 451 596
e 451 822
e 452 717
e 452 522
e 452 790
e 452 722
e 454 865
e 454 789
e 454 959
e 454 665
e 456 910
e 457 657
e 457 886
e 457 680
e 458 714
e 459 839
e 460 803
e 460 965
e 461 604
e 461 865
e 461 989
e 461 928
e 464 595
e 464 601
e 466 711
e 466 575
e 467 699
e 467 928
e 467 912
e 468 472
e 468 469
e 469 893
e 470 873
e 471 505
e 471 886
e 472 852
e 473 748
e 473 821
e 473 962
e 474 887
e 474 510
e 474 654
e 475 671
e 475 968
e 476 924
e 476 872
e 476 561
e 476 512
e 477 862
e 477 772
e 478 655
e 478 778
e 478 881
e 481 547
e 481 743
e 481 673
e 486 854
e 486 834
e 486 947
e 487 715
e 487 849
e 487 653
e 487 982
e 488 777
e 488 795
e 489 959
e 489 496
e 489 851
e 490 686
e 490 630
e 490 918
e 490 819
e 491 868
e 493 915
e 493 523
e 494 845
e 494 606
e 495 653
e 496 584
e 496 944
e 497 976
e 497 982
e 497 588
e 498 677
e 499 832
e 503 941
e 504 899
e 505 780
e 505 851
e 507 852
e 508 833
e 510 783
e 510 891
e 510 552
e 510 642
e 511 613
e 511 718
e 512 666
e 512 601
e 513 631
e 513 980
e 517 864
e 517 813
e 518 792
e 518 827
e 519 905
e 519 927
e 519 622
e 521 855
e 521 752
e 522 808
e 526 865
e 526 658
e 526 679
e 528 984
e 531 844
e 534 887
e 535 879
e 535 654
e 535 764
e 537 701
e 537 827
e 537 734
e 537 577
e 537 845
e 538 622
e 538 662
e 538 879
e 539 886
e 539 547
e 540 717
e 540 612
e 541 911
e 541 861
e 541 909
e 544 921
e 544 838
e 544 708
e 544 585
e 545 548
e 545 639
e 547 821
e 547 694
e 548 805
e 549 720
e 551 839
e 551 792
e 551 751
e 552 825
e 552 989
e 555 752
e 555 725
e 555 877
e 555 731
e 556 937
e 556 826
e 561 921
e 561 597
e 561 835
e 564 670
e 564 669
e 565 623
e 565 616
e 565 752
e 566 804
e 567 927
e 567 757
e 567 631
e 567 592
e 569 999
e 569 630
e 569 608
e 572 748
e 572 956
e 572 798
e 575 611
e 576 709
e 579 852
e 579 604
e 579 925
e 583 694
e 583 668
e 585 854
e 585 714
e 585 831
e 585 707
e 586 783
e 586 634
e 586 984
e 586 956
e 586 684
e 587 783
e 588 794
e 590 915
e 590 674
e 591 709
e 591 896
e 591 739
e 592 995
e 592 677
e 595 977
e 597 903
e 597 962
e 598 874
e 598 657
e 598 620
e 598 778
e 598 935
e 598 600
e 600 890
e 600 868
e 601 740
e 601 764
e 601 873
e 602 789
e 602 901
e 602 764
e 602 984
e 604 854
e 604 867
e 606 927
e 607 623
e 607 733
e 608 738
e 608 748
e 609 836
e 609 708
e 609 679
e 611 824
e 611 629
e 611 928
e 611 760
e 612 763
e 612 795
e 612 850
e 612 825
e 612 787
e 613 964
e 613 740
e 615 747
e 615 941
e 615 829
e 617 770
e 617 848
e 618 650
e 618 667
e 618 619
e 619 699
e 619 701
e 619 634
e 619 895
e 619 802
e 620 718
e 620 961
e 622 712
e 622 790
e 622 639
e 622 729
e 623 674
e 623 818
e 628 883
e 628 920
e 629 759
e 631 716
e 631 998
e 632 713
e 632 867
e 633 918
e 634 971
e 634 806
e 635 718
e 635 956
e 635 791
e 635 833
e 635 882
e 637 887
e 637 758
e 638 998
e 638 992
e 641 835
e 641 673
e 642 643
e 642 858
e 643 828
e 644 824
e 644 677
e 645 751
e 645 964
e 645 935
e 645 855
e 645 730
e 645 823
e 646 647
e 646 942
e 646 978
e 647 998
e 647 766
e 648 748
e 648 945
e 648 862
e 650 705
e 651 734
e 652 667
e 653 789
e 653 972
e 654 850
e 655 773
e 655 743
e 657 996
e 657 951
e 658 664
e 660 774
e 662 814
e 665 975
e 666 876
e 666 994
e 666 771
e 666 691
e 666 699
e 667 894
e 667 733
e 668 735
e 669 707
e 669 831
e 669 677
e 670 991
e 670 773
e 670 891
e 670 788
e 671 761
e 671 885
e 672 803
e 672 875
e 672 758
e 673 797
e 677 773
e 680 832
e 680 804
e 680 886
e 680 746
e 681 924
e 681 973
e 682 929
e 684 728
e 689 965
e 690 865
e 691 936
e 691 883
e 691 913
e 691 720
e 692 713
e 692 961
e 693 970
e 693 916
e 693 913
e 694 794
e 694 976
e 694 977
e 694 893
e 695 874
e 698 729
e 698 813
e 699 854
e 701 927
e 704 772
e 705 757
e 705 956
e 707 804
e 709 900
e 711 962
e 712 749
e 712 747
e 712 926
e 713 750
e 713 903
e 714 916
e 715 838
e 716 996
e 716 880
e 717 885
e 717 935
e 717 788
e 718 956
e 718 883
e 718 992
e 720 872
e 720 751
e 721 942
e 721 806
e 721 912
e 721 808
e 722 805
e 727 791
e 727 915
e 728 865
e 729 761
e 729 920
e 729 766
e 730 788
e 731 945
e 734 778
e 734 977
e 735 784
e 735 821
e 736 806
e 736 980
e 737 937
e 737 849
e 738 766
e 738 937
e 739 935
e 739 870
e 740 958
e 740 901
e 741 973
e 741 968
e 743 989
e 743 897
e 746 936
e 746 863
e 747 854
e 747 758
e 748 801
e 749 843
e 749 942
e 749 914
e 750 825
e 753 868
e 753 955
e 753 763
e 753 939
e 754 975
e 754 781
e 757 972
e 757 829
e 759 944
e 759 989
e 759 894
e 761 929
e 763 963
e 766 771
e 766 964
e 767 913
e 767 901
e 770 867
e 770 819
e 771 985
e 771 790
e 772 829
e 772 987
e 776 914
e 776 938
e 776 790
e 776 939
e 776 866
e 780 790
e 780 908
e 782 839
e 782 992
e 782 912
e 783 901
e 784 934
e 786 908
e 786 927
e 786 985
e 787 820
e 788 926
e 788 906
e 789 844
e 789 995
e 790 895
e 790 910
e 791 903
e 794 944
e 794 932
e 795 868
e 795 925
e 801 967
e 803 999
e 804 990
e 805 897
e 813 891
e 813 843
e 816 879
e 817 994
e 818 963
e 820 832
e 820 834
e 820 909
e 821 858
e 822 970
e 824 896
e 826 863
e 827 926
e 827 973
e 829 848
e 829 893
e 832 975
e 832 861
e 834 851
e 835 926
e 837 934
e 839 860
e 840 975
e 844 886
e 844 973
e 844 985
e 845 869
e 847 990
e 848 875
e 849 875
e 850 871
e 852 935
e 852 881
e 861 920
e 861 911
e 863 935
e 866 948
e 867 897
e 867 924
e 867 949
e 868 877
e 868 972
e 870 980
e 874 987
e 879 937
e 880 977
e 883 941
e 884 963
e 885 976
e 887 893
e 890 906
e 891 959
e 893 974
e 896 900
e 897 984
e 899 992
e 906 956
e 909 935
e 910 985
e 918 971
e 924 1000
e 926 956
e 950 990
e 959 980
e 963 981
e 982 984
