txt_Ins/graph-1000-292.txt
n 1000
e 1 826
e 1 770
e 1 354
e 1 847
e 1 430
e 2 629
e 2 612
e 2 467
e 2 258
e 4 797
e 4 170
e 4 312
e 4 143
e 4 681
e 4 38
e 5 378
e 5 366
e 5 757
e 5 91
e 5 554
e 5 255
e 10 898
e 10 506
e 10 807
e 10 67
e 10 405
e 10 880
e 11 882
e 11 72
e 11 434
e 11 812
e 11 192
e 12 798
e 12 747
e 12 544
e 12 917
e 12 937
e 13 614
e 13 689
e 13 112
e 14 838
e 14 827
e 14 399
e 14 737
e 14 156
e 14 270
e 15 255
e 15 783
e 15 843
e 17 904
e 17 113
e 17 269
e 18 88
e 18 676
e 18 208
e 18 159
e 20 439
e 20 707
e 20 97
e 21 459
e 21 652
e 21 285
e 21 439
e 22 890
e 22 872
e 22 568
e 22 967
e 22 122
e 22 822
e 23 890
e 23 823
e 23 949
e 26 739
e 26 335
e 26 785
e 26 522
e 26 316
e 26 611
e 27 756
e 27 338
e 27 504
e 27 937
e 27 126
e 27 903
e 29 552
e 29 564
e 29 524
e 29 828
e 30 455
e 30 259
e 30 520
e 31 285
e 31 815
e 31 346
e 31 615
e 32 574
e 32 460
e 32 957
e 32 894
e 33 937
e 33 703
e 33 73
e 33 142
e 36 37
e 36 851
e 36 503
e 37 649
e 37 422
e 37 417
e 37 300
e 38 351
e 38 228
e 38 266
e 38 255
e 38 789
e 39 401
e 39 986
e 39 305
e 39 498
e 40 465
e 40 384
e 40 499
e 40 848
e 40 432
e 40 228
e 41 111
e 41 384
e 41 75
e 42 830
e 42 637
e 42 116
e 42 309
e 43 108
e 43 724
e 43 455
e 43 231
e 43 488
e 43 83
e 43 527
e 45 338
e 45 427
e 45 582
e 45 264
e 45 332
e 46 842
e 46 961
e 46 857
e 47 721
e 47 548
e 47 772
e 47 244
e 47 429
e 47 685
e 47 679
e 48 722
e 48 393
e 48 470
e 48 202
e 49 927
e 49 455
e 49 577
e 49 652
e 50 432
e 50 385
e 50 693
e 50 77
e 51 880
e 51 502
e 51 484
e 52 91
e 52 578
e 52 817
e 53 284
e 53 886
e 53 551
e 53 575
e 53 522
e 53 467
e 54 709
e 54 979
e 54 254
e 54 236
e 55 608
e 55 938
e 55 726
e 56 864
e 56 371
e 56 577
e 56 466
e 56 127
e 56 475
e 57 662
e 57 622
e 57 913
e 57 928
e 57 220
e 58 255
e 58 442
e 58 854
e 58 140
e 58 664
e 59 962
e 59 746
e 59 427
e 59 767
e 59 70
e 59 69
e 59 721
e 60 497
e 60 773
e 60 120
e 60 865
e 62 802
e 62 770
e 62 890
e 62 611
e 62 201
e 62 333
e 62 917
e 62 621
e 62 563
e 62 248
e 63 832
e 63 430
e 63 659
e 64 964
e 64 247
e 64 289
e 65 463
e 65 597
e 65 879
e 65 616
e 65 960
e 65 645
e 65 488
e 65 729
e 66 313
e 66 174
e 66 317
e 66 935
e 67 981
e 67 258
e 67 504
e 67 169
e 67 854
e 69 111
e 69 450
e 69 539
e 69 917
e 70 130
e 70 384
e 70 693
e 70 193
e 70 582
e 70 230
e 70 788
e 71 574
e 71 849
e 71 961
e 71 111
e 72 439
e 72 354
e 72 168
e 72 489
e 72 796
e 72 693
e 72 480
e 72 562
e 73 868
e 73 861
e 73 752
e 74 330
e 74 218
e 74 375
e 74 659
e 74 737
e 75 710
e 75 324
e 75 265
e 76 410
e 76 595
e 76 447
e 76 429
e 76 889
e 76 510
e 76 763
e 77 654
e 77 685
e 77 924
e 77 599
e 77 896
e 77 97
e 80 317
e 80 155
e 80 185
e 80 350
e 80 709
e 80 954
e 80 747
e 81 843
e 81 739
e 81 767
e 82 494
e 82 507
e 82 361
e 83 378
e 83 410
e 83 666
e 83 954
e 84 299
e 84 127
e 84 276
e 84 812
e 84 140
e 84 519
e 84 650
e 86 137
e 86 322
e 86 944
e 86 148
e 86 973
e 86 438
e 87 925
e 87 446
e 87 138
e 87 166
e 87 458
e 88 494
e 88 615
e 91 143
e 91 881
e 91 980
e 91 349
e 91 310
e 92 861
e 92 837
e 92 653
e 92 369
e 92 769
e 92 894
e 93 147
e 93 390
e 93 998
e 93 113
e 94 162
e 94 202
e 94 605
e 94 407
e 94 575
e 94 440
e 94 361
e 95 618
e 95 106
e 95 441
e 95 212
e 97 633
e 97 166
e 97 168
e 98 801
e 98 373
e 98 222
e 99 475
e 99 533
e 99 914
e 99 864
e 100 834
e 100 895
e 100 551
e 100 678
e 101 494
e 101 643
e 101 203
e 101 166
e 102 608
e 102 139
e 102 729
e 105 711
e 105 135
e 105 825
e 106 816
e 106 326
e 106 533
e 106 217
e 107 597
e 107 873
e 107 130
e 108 516
e 108 401
e 109 618
e 109 215
e 109 835
e 109 893
e 109 335
e 110 458
e 110 419
e 110 859
e 110 756
e 111 870
e 111 430
e 111 966
e 111 188
e 111 970
e 111 821
e 111 301
e 111 546
e 112 642
e 112 881
e 112 511
e 112 519
e 112 235
e 112 605
e 112 167
e 112 762
e 113 166
e 113 475
e 113 765
e 113 583
e 114 599
e 114 656
e 114 530
e 116 995
e 116 497
e 117 931
e 117 850
e 117 637
e 118 991
e 118 172
e 118 825
e 118 692
e 118 354
e 119 950
e 119 364
e 119 342
e 120 999
e 120 651
e 120 257
e 120 437
e 121 883
e 121 127
e 121 943
e 122 890
e 122 934
e 124 151
e 124 907
e 124 317
e 124 704
e 126 902
e 126 150
e 127 632
e 127 597
e 128 642
e 128 873
e 128 373
e 128 511
e 128 188
e 129 653
e 129 843
e 129 766
e 129 943
e 129 489
e 129 365
e 130 999
e 130 197
e 130 771
e 130 678
e 130 156
e 131 825
e 131 345
e 131 552
e 131 420
e 132 547
e 132 369
e 132 537
e 132 662
e 132 583
e 132 651
e 134 314
e 134 816
e 134 813
e 134 223
e 135 527
e 135 760
e 135 283
e 136 309
e 136 451
e 136 989
e 136 859
e 137 657
e 137 305
e 137 322
e 137 691
e 137 882
e 137 382
e 137 763
e 138 201
e 138 825
e 138 920
e 139 555
e 139 895
e 140 752
e 140 533
e 140 459
e 142 893
e 142 455
e 142 432
e 143 537
e 143 365
e 143 153
e 147 358
e 147 801
e 147 548
e 147 796
e 147 631
e 147 737
e 147 246
e 148 459
e 148 846
e 148 988
e 149 980
e 149 791
e 149 663
e 150 204
e 150 152
e 150 313
e 150 938
e 150 697
e 150 773
e 150 184
e 151 893
e 151 455
e 151 715
e 152 327
e 152 193
e 153 749
e 153 170
e 154 348
e 154 315
e 154 694
e 154 762
e 154 231
e 154 881
e 155 930
e 155 800
e 156 950
e 156 583
e 156 397
e 156 796
e 157 172
e 157 173
e 157 241
e 157 353
e 157 262
e 159 375
e 159 335
e 159 548
e 159 260
e 159 362
e 160 930
e 160 881
e 160 905
e 160 568
e 161 520
e 161 975
e 161 194
e 162 622
e 162 980
e 162 615
e 162 358
e 162 763
e 162 507
e 164 657
e 164 166
e 164 721
e 164 467
e 164 697
e 164 900
e 164 627
e 164 973
e 164 933
e 165 408
e 165 187
e 165 509
e 166 813
e 166 605
e 166 443
e 167 194
e 167 676
e 167 849
e 167 955
e 167 791
e 167 477
e 168 448
e 169 260
e 169 497
e 169 575
e 169 883
e 170 734
e 170 448
e 170 419
e 171 971
e 171 198
e 171 657
e 171 455
e 171 323
e 172 597
e 172 294
e 172 340
e 172 266
e 172 854
e 172 512
e 173 519
e 173 757
e 174 240
e 174 981
e 174 582
e 174 182
e 174 264
e 174 872
e 175 988
e 175 435
e 175 309
e 176 886
e 176 197
e 176 597
e 176 717
e 177 776
e 177 314
e 177 324
e 177 935
e 178 998
e 178 771
e 178 637
e 179 366
e 179 263
e 179 414
e 179 652
e 179 205
e 182 853
e 182 688
e 182 622
e 184 977
e 184 790
e 184 662
e 185 862
e 185 610
e 185 875
e 185 333
e 187 853
e 187 533
e 187 231
e 188 650
e 188 723
e 188 800
e 189 361
e 189 936
e 189 835
e 189 760
e 191 661
e 191 875
e 191 237
e 191 642
e 192 736
e 192 240
e 192 480
e 192 608
e 193 734
e 194 767
e 194 335
e 194 303
e 197 889
e 197 747
e 197 458
e 197 737
e 198 455
e 198 733
e 198 937
e 199 694
e 199 875
e 199 524
e 199 332
e 199 276
e 199 822
e 199 735
e 200 857
e 200 350
e 200 640
e 200 715
e 200 525
e 201 373
e 201 262
e 201 521
e 201 496
e 202 552
e 202 581
e 202 270
e 202 487
e 202 667
e 203 490
e 203 647
e 203 460
e 204 693
e 204 777
e 204 597
e 204 338
e 205 923
e 205 246
e 205 378
e 205 844
e 205 988
e 205 597
e 208 802
e 208 807
e 208 667
e 211 973
e 211 303
e 211 316
e 212 783
e 212 719
e 213 690
e 213 955
e 213 497
e 213 822
e 213 852
e 214 874
e 214 875
e 214 788
e 214 805
e 214 928
e 215 863
e 215 222
e 215 710
e 215 944
e 215 322
e 215 611
e 215 395
e 217 798
e 217 260
e 217 716
e 217 852
e 218 435
e 218 247
e 220 226
e 220 776
e 220 499
e 220 364
e 220 227
e 222 994
e 222 971
e 223 770
e 223 427
e 223 601
e 224 269
e 224 680
e 224 791
e 226 441
e 226 704
e 227 745
e 227 812
e 227 636
e 228 714
e 228 653
e 230 457
e 230 724
e 230 402
e 230 422
e 231 494
e 231 377
e 232 980
e 232 870
e 232 868
e 233 312
e 233 379
e 233 537
e 234 389
e 234 981
e 234 798
e 234 767
e 235 862
e 235 904
e 235 324
e 235 509
e 236 399
e 236 366
e 237 304
e 237 475
e 237 343
e 237 865
e 237 912
e 237 904
e 237 263
e 238 627
e 238 336
e 238 926
e 240 948
e 240 735
e 240 366
e 240 610
e 241 313
e 241 441
e 241 873
e 241 678
e 242 551
e 242 450
e 242 641
e 243 433
e 243 766
e 243 964
e 244 530
e 244 301
e 244 562
e 244 689
e 244 536
e 244 912
e 246 781
e 247 379
e 247 417
e 248 990
e 248 785
e 250 472
e 250 838
e 250 706
e 251 385
e 251 966
e 251 903
e 253 831
e 253 608
e 253 409
e 253 268
e 254 963
e 254 973
e 254 379
e 254 585
e 254 787
e 254 931
e 255 311
e 255 780
e 255 832
e 257 484
e 257 269
e 257 313
e 257 608
e 258 883
e 258 303
e 258 365
e 258 867
e 258 384
e 258 484
e 259 876
e 259 966
e 259 874
e 259 432
e 260 263
e 261 913
e 261 606
e 261 722
e 262 683
e 262 265
e 262 427
e 262 503
e 263 548
e 264 276
e 264 836
e 264 605
e 264 633
e 265 947
e 266 332
e 266 807
e 266 882
e 268 343
e 268 463
e 270 577
e 270 275
e 272 476
e 272 390
e 272 533
e 273 890
e 273 334
e 273 474
e 273 889
e 275 689
e 275 418
e 276 709
e 276 663
e 277 637
e 277 346
e 277 492
e 277 963
e 279 456
e 279 336
e 279 407
e 280 865
e 280 487
e 280 820
e 283 305
e 283 371
e 283 700
e 284 563
e 284 947
e 285 649
e 285 827
e 286 801
e 286 401
e 286 365
e 286 715
e 289 395
e 289 903
e 290 554
e 290 299
e 290 504
e 291 770
e 291 536
e 291 836
e 294 468
e 294 564
e 294 630
e 295 366
e 295 738
e 295 679
e 296 935
e 296 349
e 296 457
e 297 493
e 297 326
e 297 762
e 297 390
e 299 522
e 299 506
e 299 910
e 299 745
e 299 937
e 300 411
e 300 595
e 300 575
e 300 469
e 300 826
e 301 418
e 301 600
e 302 656
e 302 954
e 302 429
e 302 976
e 302 780
e 302 389
e 303 998
e 303 638
e 303 666
e 304 524
e 304 848
e 305 681
e 305 408
e 305 934
e 308 599
e 308 562
e 308 344
e 308 822
e 308 816
e 309 365
e 309 785
e 310 584
e 310 534
e 310 889
e 310 350
e 310 690
e 311 977
e 311 412
e 311 969
e 312 723
e 313 497
e 313 861
e 313 837
e 314 415
e 314 633
e 314 607
e 315 923
e 315 772
e 315 933
e 315 594
e 315 912
e 316 490
e 316 382
e 316 698
e 317 886
e 317 339
e 319 471
e 319 910
e 319 819
e 319 327
e 319 798
e 321 554
e 321 852
e 321 584
e 321 595
e 322 961
e 323 418
e 323 494
e 323 630
e 323 539
e 323 850
e 324 348
e 324 447
e 324 994
e 324 599
e 326 471
e 326 640
e 326 637
e 327 937
e 327 871
e 328 839
e 328 787
e 328 917
e 330 340
e 330 905
e 330 565
e 332 576
e 333 850
e 333 820
e 333 349
e 333 759
e 334 443
e 334 703
e 335 673
e 336 747
e 336 993
e 338 345
e 338 790
e 338 632
e 339 884
e 339 815
e 339 786
e 339 927
e 340 670
e 340 408
e 340 917
e 340 738
e 340 577
e 342 473
e 342 437
e 343 737
e 343 914
e 343 971
e 343 925
e 344 748
e 344 421
e 344 910
e 344 854
e 345 397
e 345 415
e 345 869
e 346 540
e 346 456
e 346 608
e 346 457
e 348 665
e 348 740
e 348 641
e 348 859
e 348 727
e 348 494
e 348 688
e 349 781
e 349 713
e 349 844
e 350 935
e 350 834
e 350 576
e 351 653
e 351 730
e 353 600
e 353 930
e 354 977
e 354 948
e 355 631
e 355 937
e 355 694
e 355 499
e 355 738
e 358 362
e 360 724
e 360 586
e 360 730
e 361 875
e 361 723
e 361 517
e 362 823
e 362 935
e 362 428
e 362 667
e 364 668
e 364 480
e 364 839
e 364 587
e 365 543
e 366 581
e 366 659
e 369 468
e 371 779
e 371 495
e 371 977
e 371 734
e 371 589
e 372 447
e 372 742
e 372 412
e 372 378
e 372 586
e 373 472
e 375 676
e 375 703
e 375 656
e 377 831
e 377 665
e 377 489
e 377 730
e 377 486
e 378 789
e 378 455
e 379 536
e 379 753
e 382 651
e 382 566
e 382 883
e 382 680
e 382 419
e 382 756
e 385 664
e 385 683
e 385 958
e 387 730
e 387 853
e 387 882
e 388 957
e 388 797
e 388 596
e 389 727
e 390 555
e 390 753
e 390 468
e 390 688
e 390 594
e 390 875
e 390 964
e 391 502
e 391 704
e 391 429
e 391 758
e 392 781
e 392 646
e 392 419
e 393 859
e 393 783
e 395 446
e 395 986
e 395 748
e 397 885
e 397 469
e 397 484
e 397 818
e 398 732
e 398 595
e 398 692
e 398 876
e 398 899
e 398 563
e 398 506
e 399 476
e 399 984
e 400 474
e 400 933
e 400 883
e 400 610
e 400 608
e 401 817
e 401 468
e 401 936
e 401 734
e 401 798
e 402 716
e 402 989
e 403 842
e 403 575
e 403 722
e 405 538
e 405 618
e 405 420
e 407 672
e 407 486
e 408 498
e 408 607
e 408 681
e 409 946
e 409 869
e 410 499
e 410 566
e 411 540
e 411 507
e 412 896
e 412 783
e 412 578
e 414 990
e 414 772
e 414 616
e 415 431
e 415 432
e 415 582
e 415 847
e 415 614
e 417 925
e 417 923
e 417 469
e 417 745
e 418 707
e 419 859
e 419 654
e 420 742
e 420 728
e 420 427
e 420 726
e 420 628
e 420 980
e 421 636
e 421 998
e 421 837
e 422 819
e 422 630
e 422 960
e 424 726
e 424 428
e 424 791
e 428 949
e 429 769
e 429 846
e 430 765
e 430 920
e 431 641
e 431 902
e 432 767
e 432 510
e 432 488
e 432 622
e 433 610
e 433 689
e 434 883
e 434 871
e 435 859
e 435 493
e 437 581
e 437 775
e 438 967
e 438 721
e 439 694
e 440 772
e 440 565
e 440 762
e 442 458
e 442 637
e 442 739
e 443 946
e 443 899
e 446 543
e 446 663
e 446 708
e 447 874
e 447 915
e 447 864
e 447 595
e 448 847
e 448 759
e 448 512
e 448 607
e 448 863
e 450 708
e 450 651
e 450 595
e 450 821
e 451 716
e 451 521
e 451 789
e 451 721
e 453 864
e 453 788
e 453 958
e 453 664
e 455 909
e 456 656
e 456 885
e 456 679
e 457 713
e 458 838
e 459 802
e 459 964
e 460 603
e 460 864
e 460 988
e 460 927
e 463 594
e 463 600
e 465 710
e 465 574
e 466 698
e 466 927
e 466 911
e 467 471
e 467 468
e 468 892
e 469 872
e 470 504
e 470 885
e 471 851
e 472 747
e 472 820
e 472 961
e 473 886
e 473 509
e 473 653
e 474 670
e 474 967
e 475 923
e 475 871
e 475 560
e 475 511
e 476 861
e 476 771
e 477 654
e 477 777
e 477 880
e 480 546
e 480 742
e 480 672
e 485 853
e 485 833
e 485 946
e 486 714
e 486 848
e 486 652
e 486 981
e 487 776
e 487 794
e 488 958
e 488 495
e 488 850
e 489 685
e 489 629
e 489 917
e 489 818
e 490 867
e 492 914
e 492 522
e 493 844
e 493 605
e 494 652
e 495 583
e 495 943
e 496 975
e 496 981
e 496 587
e 497 676
e 498 831
e 502 940
e 503 898
e 504 779
e 504 850
e 506 851
e 507 832
e 509 782
e 509 890
e 509 551
e 509 641
e 510 612
e 510 717
e 511 665
e 511 600
e 512 630
e 512 979
e 516 863
e 516 812
e 517 791
e 517 826
e 518 904
e 518 926
e 518 621
e 520 854
e 520 751
e 521 807
e 525 864
e 525 657
e 525 678
e 527 983
e 530 843
e 533 886
e 534 878
e 534 653
e 534 763
e 536 700
e 536 826
e 536 733
e 536 576
e 536 844
e 537 621
e 537 661
e 537 878
e 538 885
e 538 546
e 539 716
e 539 611
e 540 910
e 540 860
e 540 908
e 543 920
e 543 837
e 543 707
e 543 584
e 544 547
e 544 638
e 546 820
e 546 693
e 547 804
e 548 719
e 550 838
e 550 791
e 550 750
e 551 824
e 551 988
e 554 751
e 554 724
e 554 876
e 554 730
e 555 936
e 555 825
e 560 920
e 560 596
e 560 834
e 563 669
e 563 668
e 564 622
e 564 615
e 564 751
e 565 803
e 566 926
e 566 756
e 566 630
e 566 591
e 568 998
e 568 629
e 568 607
e 571 747
e 571 955
e 571 797
e 574 610
e 575 708
e 578 851
e 578 603
e 578 924
e 582 693
e 582 667
e 584 853
e 584 713
e 584 830
e 584 706
e 585 782
e 585 633
e 585 983
e 585 955
e 585 683
e 586 782
e 587 793
e 589 914
e 589 673
e 590 708
e 590 895
e 590 738
e 591 994
e 591 676
e 594 976
e 596 902
e 596 961
e 597 873
e 597 656
e 597 619
e 597 777
e 597 934
e 597 599
e 599 889
e 599 867
e 600 739
e 600 763
e 600 872
e 601 788
e 601 900
e 601 763
e 601 983
e 603 853
e 603 866
e 605 926
e 606 622
e 606 732
e 607 737
e 607 747
e 608 835
e 608 707
e 608 678
e 610 823
e 610 628
e 610 927
e 610 759
e 611 762
e 611 794
e 611 849
e 611 824
e 611 786
e 612 963
e 612 739
e 614 746
e 614 940
e 614 828
e 616 769
e 616 847
e 617 649
e 617 666
e 617 618
e 618 698
e 618 700
e 618 633
e 618 894
e 618 801
e 619 717
e 619 960
e 621 711
e 621 789
e 621 638
e 621 728
e 622 673
e 622 817
e 627 882
e 627 919
e 628 758
e 630 715
e 630 997
e 631 712
e 631 866
e 632 917
e 633 970
e 633 805
e 634 717
e 634 955
e 634 790
e 634 832
e 634 881
e 636 886
e 636 757
e 637 997
e 637 991
e 640 834
e 640 672
e 641 642
e 641 857
e 642 827
e 643 823
e 643 676
e 644 750
e 644 963
e 644 934
e 644 854
e 644 729
e 644 822
e 645 646
e 645 941
e 645 977
e 646 997
e 646 765
e 647 747
e 647 944
e 647 861
e 649 704
e 650 733
e 651 666
e 652 788
e 652 971
e 653 849
e 654 772
e 654 742
e 656 995
e 656 950
e 657 663
e 659 773
e 661 813
e 664 974
e 665 875
e 665 993
e 665 770
e 665 690
e 665 698
e 666 893
e 666 732
e 667 734
e 668 706
e 668 830
e 668 676
e 669 990
e 669 772
e 669 890
e 669 787
e 670 760
e 670 884
e 671 802
e 671 874
e 671 757
e 672 796
e 676 772
e 679 831
e 679 803
e 679 885
e 679 745
e 680 923
e 680 972
e 681 928
e 683 727
e 688 964
e 689 864
e 690 935
e 690 882
e 690 912
e 690 719
e 691 712
e 691 960
e 692 969
e 692 915
e 692 912
e 693 793
e 693 975
e 693 976
e 693 892
e 694 873
e 697 728
e 697 812
e 698 853
e 700 926
e 703 771
e 704 756
e 704 955
e 706 803
e 708 899
e 710 961
e 711 748
e 711 746
e 711 925
e 712 749
e 712 902
e 713 915
e 714 837
e 715 995
e 715 879
e 716 884
e 716 934
e 716 787
e 717 955
e 717 882
e 717 991
e 719 871
e 719 750
e 720 941
e 720 805
e 720 911
e 720 807
e 721 804
e 726 790
e 726 914
e 727 864
e 728 760
e 728 919
e 728 765
e 729 787
e 730 944
e 733 777
e 733 976
e 734 783
e 734 820
e 735 805
e 735 979
e 736 936
e 736 848
e 737 765
e 737 936
e 738 934
e 738 869
e 739 957
e 739 900
e 740 972
e 740 967
e 742 988
e 742 896
e 745 935
e 745 862
e 746 853
e 746 757
e 747 800
e 748 842
e 748 941
e 748 913
e 749 824
e 752 867
e 752 954
e 752 762
e 752 938
e 753 974
e 753 780
e 756 971
e 756 828
e 758 943
e 758 988
e 758 893
e 760 928
e 762 962
e 765 770
e 765 963
e 766 912
e 766 900
e 769 866
e 769 818
e 770 984
e 770 789
e 771 828
e 771 986
e 775 913
e 775 937
e 775 789
e 775 938
e 775 865
e 779 789
e 779 907
e 781 838
e 781 991
e 781 911
e 782 900
e 783 933
e 785 907
e 785 926
e 785 984
e 786 819
e 787 925
e 787 905
e 788 843
e 788 994
e 789 894
e 789 909
e 790 902
e 793 943
e 793 931
e 794 867
e 794 924
e 800 966
e 802 998
e 803 989
e 804 896
e 812 890
e 812 842
e 815 878
e 816 993
e 817 962
e 819 831
e 819 833
e 819 908
e 820 857
e 821 969
e 823 895
e 825 862
e 826 925
e 826 972
e 828 847
e 828 892
e 831 974
e 831 860
e 833 850
e 834 925
e 836 933
e 838 859
e 839 974
e 843 885
e 843 972
e 843 984
e 844 868
e 846 989
e 847 874
e 848 874
e 849 870
e 851 934
e 851 880
e 860 919
e 860 910
e 862 934
e 865 947
e 866 896
e 866 923
e 866 948
e 867 876
e 867 971
e 869 979
e 873 986
e 878 936
e 879 976
e 882 940
e 883 962
e 884 975
e 886 892
e 889 905
e 890 958
e 892 973
e 895 899
e 896 983
e 898 991
e 905 955
e 908 934
e 909 984
e 917 970
e 923 999
e 925 955
e 949 989
e 958 979
e 962 980
e 981 983
